c 4 __LINUXTHREADS_OLD__
c 1 __UCLIBC_HAS_THREADS_NATIVE__
c 2 __UCLIBC_SUSV4_LEGACY__
c 3 __UCLIBC_HAS_XLOCALE__
c 6 __UCLIBC_HAS_LOCALE__
c 7 __LINUXTHREADS_NEW__
c 5 __UCLIBC_HAS_THREADS__
p cnf 7 3
1 4 -3 -5 6 -2 -7 1
4 -3 -5 -1 6 -2 1
-4 -3 -5 6 -2 1
